c WARNING: for repeatability, setting FPU to use double precision
d VARIABLES            219702       
d CONSTRAINTS          957407       
c ============================[ Problem Statistics ]=============================
c |                                                                             |
c |  Number of variables:        219702                                         |
c |  Number of clauses:          957407                                         |
c |  Parse time:                   0.16 s                                       |
c |                                                                             |
c ============================[ Search Statistics ]==============================
c | Conflicts |          ORIGINAL         |          LEARNT          | Progress |
c |           |    Vars  Clauses Literals |    Limit  Clauses Lit/Cl |          |
c ===============================================================================
c |       100 |  181843   860173  2083569 |   315396      100     15 | 17.232 % |
c |       250 |  181843   860173  2083569 |   346936      250     33 | 17.232 % |
c |       475 |  181843   860173  2083569 |   381630      475    166 | 17.232 % |
c |       812 |  181843   860173  2083569 |   419793      812    128 | 17.232 % |
c |      1318 |  181843   860173  2083569 |   461772     1318    114 | 17.232 % |
c |      2077 |  181843   860173  2083569 |   507949     2077    108 | 17.232 % |
c |      3216 |  181843   860173  2083569 |   558744     3216    139 | 17.232 % |
c |      4924 |  181843   860173  2083569 |   614619     4924    141 | 17.232 % |
c |      7486 |  181843   860173  2083569 |   676080     7486    153 | 17.232 % |
c |     11330 |  181843   860173  2083569 |   743689    11330    145 | 17.232 % |
c |     17096 |  181843   860173  2083569 |   818057    17096    149 | 17.232 % |
c |     25745 |  181843   860173  2083569 |   899863    25745    141 | 17.232 % |
c |     38719 |  181843   860173  2083569 |   989850    38719    138 | 17.232 % |
c |     58180 |  181843   860173  2083569 |  1088835    58180    159 | 17.232 % |
c |     87372 |  181843   860173  2083569 |  1197718    87372    158 | 17.232 % |
c |    131161 |  181843   860173  2083569 |  1317490   131161    160 | 17.232 % |
c |    196845 |  181843   860173  2083569 |  1449239   196845    153 | 17.232 % |
c |    295371 |  181843   860173  2083569 |  1594163   295371    153 | 17.232 % |
c |    443160 |  181826   860088  2083365 |  1753579   443159    164 | 17.240 % |
c |    664843 |  181826   860088  2083365 |  1928937   664842    163 | 17.240 % |
c |    997368 |  181778   859848  2082789 |  2121831   997336    165 | 17.262 % |
c |   1496156 |  181778   859848  2082789 |  2334014  1496124    168 | 17.262 % |
c ===============================================================================
c restarts              : 3178
c conflicts             : 1670565        (936 /sec)
c decisions             : 4540307        (0.00 % random) (2545 /sec)
c propagations          : 4259261932     (2387067 /sec)
c conflict literals     : 284739476      (46.91 % deleted)
d RESTARTS             3178
d FAILURES             1670565      
d NODES                4540307      
d BACKTRACKS           4540307      
d PROPAGATIONS         4259261932   
d NOGOODSIZE           170.45 
d MEMORY               1621.00 
d TIME                 1784.31 

s UNKNOWN
